n=8;
hearts=4;
clubs=16;
spades=24;
diamonds=52;
blocked=19;
m=array2d(1..n, 1..n,[
	5,3,_,5,_,5,_,5,
	3,5,2,_,5,5,2,3,
	_,_,1,_,_,_,5,5,
	_,_,1,4,3,_,5,5,
	_,3,4,_,_,_,1,_,
	5,_,3,_,1,_,_,3,
	_,5,_,5,_,3,5,_,
	_,4,_,5,_,5,5,5
]);
